(set-logic HORN)
(declare-fun q1 (Int) Bool)
(declare-fun q2 (Int Int Int) Bool)
(declare-fun q3 (Int) Bool)
(declare-fun q4 () Bool)
(assert (forall ((|x| Int)) (=> (and (= |x| 42)) (q1 |x|))))
(assert (forall ((|x| Int) (|x'| Int) (|y*| Int) (|y^| Int)) (=> (and (q1 |x|) (= |y*| |x|) (= |x'| |y^|)) (q2 |x'| |y*| |y^|))))
(assert (forall ((|x| Int) (|y*| Int) (|y^| Int)) (=> (and (q2 |x| |y*| |y^|) (= |y^| |y*|)) (q3 |x|))))
(assert (forall ((|x| Int)) (=> (and (q3 |x|)) (= |x| 43))))
(assert (forall ((|x| Int)) (=> (and (q3 |x|)) q4)))
(check-sat)
(get-model)
